\* Problem: Unknown *\

Maximize
 obj: + xp_0_0 + xp_0_1 + xp_0_2 + xp_0_3 + xp_0_4 + xp_1_0 + xp_1_1
 + xp_2_0 + xp_2_1 + xp_2_2 + xp_2_3 + xp_3_0 + xp_3_1 + xp_3_2 + xp_4_0
 + xp_4_1 + xp_5_0 + xp_5_1 + xp_6_0 + xp_7_0 + xp_8_0 + xp_9_0
 + xp_10_0 + xp_11_0 + xp_11_1 + xp_11_2 + xp_11_3 + xp_12_0 + xp_13_0
 + xp_13_1 + xp_14_0 + xp_14_1 + xp_15_0 + xp_15_1 + xp_16_0 + xp_17_0
 + xp_17_1 + xp_17_2 + xp_17_3 + xp_18_0 + xp_18_1 + xp_18_2 + xp_18_3
 + xp_19_0 + xp_19_1 + xp_19_2 + xp_20_0 + xp_20_1 + xp_20_2 + xp_20_3
 + xp_21_0 + xp_21_1 + xp_21_2 + xp_21_3 + xp_22_0 + xp_22_1 + xp_22_2
 + xp_22_3 + xp_22_4 + xp_22_5 + xp_23_0 + xp_23_1 + xp_23_2

Subject To
 r_1: 0 xp_0_0 <= 30
 r_2: + xp_22_3 + xp_18_2 + xp_2_2 <= 30
 r_3: + xp_21_2 + xp_18_3 + xp_15_1 <= 30
 r_4: + xp_17_2 + xp_15_0 <= 30
 r_5: + xp_18_0 <= 29.4574468085106
 r_6: + xp_18_1 <= 30
 r_7: + xp_20_1 <= 30
 r_8: + xp_23_2 + xp_22_4 + xp_11_1 + xp_5_1 + xp_3_2 <= 30
 r_9: + xp_11_3 + xp_3_1 <= 30
 r_10: + xp_3_0 <= 30
 r_11: + xp_18_1 + xp_11_2 <= 29.4574468085106
 r_12: + xp_11_0 <= 30
 r_13: 0 xp_0_0 <= 30
 r_14: + xp_19_2 + xp_14_0 + xp_4_1 + xp_0_3 + xp_0_1 <= 30
 r_15: + xp_21_0 + xp_19_1 <= 30
 r_16: + xp_22_1 + xp_21_1 + xp_0_4 + xp_0_2 <= 30
 r_17: + xp_0_0 <= 29.4574468085106
 r_18: + xp_21_2 + xp_4_0 <= 30
 r_19: + xp_19_0 <= 30
 r_20: + xp_21_3 + xp_14_1 <= 30
 r_21: + xp_20_2 <= 30
 r_22: + xp_21_3 <= 30
 r_23: + xp_22_4 + xp_22_3 + xp_22_2 + xp_3_2 <= 30
 r_24: + xp_23_2 + xp_0_3 <= 30
 r_25: 0 xp_0_0 <= 30
 r_26: + xp_18_2 + xp_0_1 <= 29.4574468085106
 r_27: + xp_11_1 + xp_4_1 <= 30
 r_28: + xp_19_2 <= 30
 r_29: + xp_20_3 <= 30
 r_30: + xp_2_0 <= 30
 r_31: + xp_18_3 + xp_15_1 + xp_3_1 + xp_2_3 <= 30
 r_32: + xp_2_1 <= 30
 r_33: + xp_11_3 + xp_2_2 <= 30
 r_34: + xp_19_1 <= 30
 r_35: 0 xp_0_0 <= 30
 r_36: + xp_9_0 <= 30
 r_37: + xp_21_1 + xp_13_1 <= 30
 r_38: + xp_1_1 <= 30
 r_39: + xp_17_3 + xp_3_2 + xp_0_4 <= 30
 r_40: + xp_0_2 <= 29.4574468085106
 r_41: + xp_12_0 + xp_2_3 <= 30
 r_42: + xp_21_1 <= 30
 r_43: + xp_16_0 <= 30
 r_44: + xp_23_2 + xp_23_1 <= 30
 r_45: + xp_15_1 + xp_3_1 <= 30
 r_46: + xp_18_3 + xp_0_3 <= 29.4574468085106
 r_47: + xp_22_5 + xp_13_1 <= 30
 r_48: + xp_13_0 <= 30
 r_49: + xp_17_1 <= 30
 r_50: 0 xp_0_0 <= 29.4574468085106
 r_51: + xp_1_1 <= 30
 r_52: + xp_8_0 <= 30
 r_53: + xp_1_0 <= 30
 r_54: + xp_0_4 <= 29.4574468085106
 r_55: 0 xp_0_0 <= 30
 r_56: 0 xp_0_0 <= 30
 r_57: + xp_22_1 <= 29.4574468085106
 r_58: + xp_22_2 + xp_5_0 <= 29.4574468085106
 r_59: + xp_22_0 + xp_17_3 <= 29.4574468085106
 r_60: + xp_23_1 + xp_6_0 <= 29.4574468085106
 r_61: + xp_23_0 + xp_22_5 + xp_17_1 <= 29.4574468085106
 r_62: + xp_17_0 <= 29.4574468085106
 r_63: + xp_22_3 + xp_17_2 + xp_11_2 <= 29.4574468085106
 r_64: + xp_23_2 + xp_22_4 + xp_5_1 <= 29.4574468085106
 r_65: + xp_21_3 + xp_20_2 + xp_14_1 + xp_2_1 <= 30
 r_66: + xp_20_3 + xp_7_0 <= 30
 r_67: + xp_20_1 + xp_10_0 <= 30
 r_68: + xp_20_0 <= 30

Bounds
 0 <= xp_0_0 <= 27.6959404232131
 0 <= xp_0_1 <= 8.41691224136365
 0 <= xp_0_2 <= 15.6583228683542
 0 <= xp_0_3 <= 3.19747128524558
 0 <= xp_0_4 <= 5.21944095611807
 0 <= xp_1_0 <= 20.2194357366771
 0 <= xp_1_1 <= 13.4796238244514
 0 <= xp_2_0 <= 22.3040908934326
 0 <= xp_2_1 <= 5.21944095611807
 0 <= xp_2_2 <= 4.27898120688089
 0 <= xp_2_3 <= 1.4263270689603
 0 <= xp_3_0 <= 22.7899790909195
 0 <= xp_3_1 <= 7.13165622256531
 0 <= xp_3_2 <= 0.956107633223621
 0 <= xp_4_0 <= 20.0626959247649
 0 <= xp_4_1 <= 5.01567398119122
 0 <= xp_5_0 <= 20.0626959247649
 0 <= xp_5_1 <= 5.01567398119122
 0 <= xp_6_0 <= 22.5705329153605
 0 <= xp_7_0 <= 21.6300940438871
 0 <= xp_8_0 <= 19.435736677116
 0 <= xp_9_0 <= 18.025078369906
 0 <= xp_10_0 <= 18.025078369906
 0 <= xp_11_0 <= 26.0972047805904
 0 <= xp_11_1 <= 5.21944095611807
 0 <= xp_11_2 <= 10.4388819122361
 0 <= xp_11_3 <= 10.4388819122361
 0 <= xp_12_0 <= 16.9278996865204
 0 <= xp_13_0 <= 13.166144200627
 0 <= xp_13_1 <= 3.29153605015674
 0 <= xp_14_0 <= 6.26959247648903
 0 <= xp_14_1 <= 9.40438871473354
 0 <= xp_15_0 <= 12.4137931034483
 0 <= xp_15_1 <= 3.10344827586207
 0 <= xp_16_0 <= 14.8902821316614
 0 <= xp_17_0 <= 27.8683489968756
 0 <= xp_17_1 <= 3.49529258620168
 0 <= xp_17_2 <= 5.21944095611807
 0 <= xp_17_3 <= 6.99058517240335
 0 <= xp_18_0 <= 23.9968808620846
 0 <= xp_18_1 <= 9.35735111283701
 0 <= xp_18_2 <= 5.21944095611807
 0 <= xp_18_3 <= 3.11911703761234
 0 <= xp_19_0 <= 26.9279101254023
 0 <= xp_19_1 <= 11.2695872570481
 0 <= xp_19_2 <= 3.025073150465
 0 <= xp_20_0 <= 26.6144305015778
 0 <= xp_20_1 <= 8.08777429467085
 0 <= xp_20_2 <= 2.86833333855277
 0 <= xp_20_3 <= 2.86833333855277
 0 <= xp_21_0 <= 15.4858934169279
 0 <= xp_21_1 <= 5.04701150469176
 0 <= xp_21_2 <= 7.74294670846395
 0 <= xp_21_3 <= 10.4388819122361
 0 <= xp_22_0 <= 17.0689602978004
 0 <= xp_22_1 <= 2.21002612852143
 0 <= xp_22_2 <= 5.21944095611807
 0 <= xp_22_3 <= 5.21944095611807
 0 <= xp_22_4 <= 5.21944095611807
 0 <= xp_22_5 <= 2.21002612852143
 0 <= xp_23_0 <= 22.2884012539185
 0 <= xp_23_1 <= 7.4294670846395
 0 <= xp_23_2 <= 7.4294670846395

End
